NAME: cuum400.tsp
TYPE: TSP
COMMENT: User-generated TSP file
DIMENSION: 400
EDGE_WEIGHT_TYPE: EUC_2D
NODE_COORD_SECTION
1 94.0 122.0
2 286.0 299.0
3 324.0 167.0
4 194.0 104.0
5 322.0 346.0
6 228.0 93.0
7 26.0 290.0
8 309.0 277.0
9 159.0 281.0
10 318.0 177.0
11 162.0 144.0
12 46.0 27.0
13 4.0 350.0
14 151.0 72.0
15 20.0 397.0
16 365.0 144.0
17 169.0 296.0
18 54.0 263.0
19 158.0 258.0
20 22.0 370.0
21 246.0 154.0
22 395.0 88.0
23 238.0 71.0
24 326.0 234.0
25 103.0 17.0
26 296.0 181.0
27 212.0 262.0
28 152.0 5.0
29 31.0 95.0
30 293.0 175.0
31 248.0 248.0
32 250.0 285.0
33 181.0 99.0
34 14.0 328.0
35 345.0 256.0
36 60.0 344.0
37 400.0 322.0
38 354.0 375.0
39 217.0 237.0
40 210.0 150.0
41 316.0 275.0
42 30.0 238.0
43 38.0 80.0
44 327.0 354.0
45 71.0 340.0
46 65.0 249.0
47 116.0 281.0
48 145.0 68.0
49 105.0 290.0
50 266.0 21.0
51 93.0 381.0
52 164.0 51.0
53 4.0 144.0
54 250.0 48.0
55 299.0 234.0
56 117.0 340.0
57 269.0 138.0
58 165.0 89.0
59 274.0 240.0
60 228.0 158.0
61 75.0 230.0
62 344.0 45.0
63 245.0 342.0
64 131.0 42.0
65 164.0 239.0
66 267.0 241.0
67 367.0 124.0
68 145.0 4.0
69 254.0 98.0
70 393.0 234.0
71 386.0 61.0
72 13.0 165.0
73 272.0 72.0
74 1.0 368.0
75 390.0 113.0
76 88.0 225.0
77 60.0 110.0
78 51.0 234.0
79 390.0 42.0
80 138.0 8.0
81 385.0 152.0
82 128.0 47.0
83 119.0 290.0
84 201.0 35.0
85 372.0 141.0
86 137.0 245.0
87 370.0 243.0
88 30.0 263.0
89 305.0 142.0
90 176.0 148.0
91 226.0 322.0
92 376.0 160.0
93 375.0 80.0
94 205.0 119.0
95 159.0 287.0
96 239.0 279.0
97 96.0 183.0
98 249.0 344.0
99 58.0 293.0
100 245.0 37.0
101 159.0 253.0
102 355.0 144.0
103 58.0 116.0
104 69.0 38.0
105 187.0 215.0
106 12.0 386.0
107 218.0 384.0
108 353.0 93.0
109 272.0 32.0
110 216.0 283.0
111 27.0 329.0
112 174.0 175.0
113 265.0 138.0
114 20.0 340.0
115 232.0 325.0
116 398.0 307.0
117 213.0 323.0
118 380.0 166.0
119 216.0 70.0
120 88.0 96.0
121 263.0 289.0
122 231.0 72.0
123 38.0 228.0
124 105.0 388.0
125 291.0 334.0
126 342.0 258.0
127 60.0 224.0
128 45.0 221.0
129 164.0 53.0
130 69.0 348.0
131 313.0 265.0
132 55.0 156.0
133 162.0 346.0
134 260.0 313.0
135 341.0 375.0
136 88.0 103.0
137 6.0 155.0
138 165.0 329.0
139 56.0 250.0
140 304.0 205.0
141 82.0 69.0
142 382.0 258.0
143 233.0 5.0
144 344.0 227.0
145 334.0 87.0
146 190.0 291.0
147 63.0 191.0
148 397.0 71.0
149 341.0 393.0
150 160.0 231.0
151 96.0 257.0
152 189.0 343.0
153 319.0 308.0
154 36.0 27.0
155 26.0 361.0
156 60.0 48.0
157 193.0 76.0
158 359.0 114.0
159 80.0 291.0
160 32.0 355.0
161 177.0 236.0
162 303.0 139.0
163 83.0 178.0
164 242.0 387.0
165 12.0 356.0
166 118.0 154.0
167 331.0 234.0
168 378.0 178.0
169 328.0 105.0
170 204.0 321.0
171 245.0 355.0
172 137.0 233.0
173 198.0 352.0
174 193.0 111.0
175 9.0 390.0
176 200.0 355.0
177 262.0 103.0
178 375.0 269.0
179 210.0 76.0
180 220.0 309.0
181 3.0 163.0
182 69.0 11.0
183 78.0 89.0
184 216.0 110.0
185 22.0 307.0
186 221.0 365.0
187 385.0 40.0
188 172.0 152.0
189 261.0 255.0
190 344.0 332.0
191 175.0 90.0
192 337.0 385.0
193 397.0 122.0
194 154.0 398.0
195 303.0 276.0
196 199.0 224.0
197 194.0 194.0
198 336.0 75.0
199 22.0 38.0
200 36.0 293.0
201 188.0 222.0
202 24.0 380.0
203 304.0 124.0
204 311.0 277.0
205 90.0 186.0
206 373.0 30.0
207 338.0 39.0
208 206.0 113.0
209 342.0 308.0
210 80.0 320.0
211 245.0 219.0
212 357.0 271.0
213 28.0 340.0
214 261.0 286.0
215 68.0 128.0
216 225.0 320.0
217 387.0 7.0
218 46.0 282.0
219 182.0 282.0
220 389.0 108.0
221 354.0 18.0
222 80.0 392.0
223 83.0 285.0
224 268.0 322.0
225 111.0 288.0
226 113.0 317.0
227 179.0 353.0
228 133.0 237.0
229 256.0 316.0
230 98.0 166.0
231 337.0 274.0
232 382.0 354.0
233 364.0 95.0
234 88.0 15.0
235 174.0 107.0
236 229.0 353.0
237 35.0 117.0
238 199.0 66.0
239 175.0 140.0
240 28.0 260.0
241 100.0 332.0
242 333.0 19.0
243 180.0 250.0
244 347.0 277.0
245 14.0 378.0
246 173.0 33.0
247 392.0 201.0
248 18.0 337.0
249 10.0 184.0
250 73.0 326.0
251 73.0 339.0
252 111.0 159.0
253 83.0 148.0
254 99.0 17.0
255 38.0 88.0
256 210.0 96.0
257 373.0 282.0
258 344.0 314.0
259 70.0 128.0
260 240.0 45.0
261 157.0 196.0
262 156.0 6.0
263 210.0 227.0
264 169.0 189.0
265 169.0 277.0
266 248.0 256.0
267 169.0 229.0
268 170.0 333.0
269 131.0 79.0
270 358.0 121.0
271 140.0 55.0
272 127.0 247.0
273 318.0 169.0
274 379.0 108.0
275 131.0 178.0
276 195.0 390.0
277 266.0 375.0
278 323.0 231.0
279 398.0 129.0
280 290.0 242.0
281 249.0 65.0
282 376.0 165.0
283 39.0 79.0
284 161.0 194.0
285 116.0 252.0
286 340.0 335.0
287 198.0 99.0
288 384.0 56.0
289 145.0 42.0
290 153.0 212.0
291 215.0 295.0
292 133.0 167.0
293 278.0 222.0
294 350.0 195.0
295 187.0 24.0
296 238.0 57.0
297 54.0 50.0
298 128.0 303.0
299 128.0 126.0
300 349.0 235.0
301 396.0 90.0
302 163.0 59.0
303 143.0 399.0
304 298.0 120.0
305 276.0 352.0
306 215.0 251.0
307 183.0 390.0
308 101.0 192.0
309 55.0 386.0
310 264.0 70.0
311 347.0 186.0
312 383.0 81.0
313 107.0 322.0
314 289.0 38.0
315 218.0 363.0
316 102.0 155.0
317 313.0 297.0
318 34.0 276.0
319 39.0 188.0
320 25.0 171.0
321 25.0 289.0
322 120.0 214.0
323 370.0 41.0
324 259.0 370.0
325 221.0 20.0
326 345.0 238.0
327 115.0 224.0
328 247.0 89.0
329 308.0 149.0
330 181.0 110.0
331 128.0 323.0
332 219.0 141.0
333 136.0 284.0
334 245.0 230.0
335 327.0 326.0
336 33.0 58.0
337 198.0 136.0
338 356.0 200.0
339 234.0 39.0
340 191.0 288.0
341 384.0 399.0
342 125.0 266.0
343 334.0 118.0
344 155.0 237.0
345 92.0 126.0
346 137.0 76.0
347 281.0 200.0
348 5.0 321.0
349 370.0 17.0
350 381.0 71.0
351 231.0 19.0
352 25.0 22.0
353 316.0 232.0
354 123.0 179.0
355 172.0 3.0
356 338.0 93.0
357 313.0 302.0
358 21.0 364.0
359 376.0 140.0
360 253.0 79.0
361 41.0 149.0
362 226.0 148.0
363 345.0 197.0
364 3.0 272.0
365 229.0 344.0
366 247.0 157.0
367 392.0 338.0
368 303.0 291.0
369 13.0 369.0
370 144.0 202.0
371 39.0 157.0
372 365.0 233.0
373 294.0 96.0
374 118.0 119.0
375 28.0 353.0
376 78.0 258.0
377 291.0 248.0
378 43.0 347.0
379 382.0 4.0
380 32.0 317.0
381 122.0 111.0
382 39.0 154.0
383 331.0 327.0
384 221.0 210.0
385 112.0 78.0
386 295.0 384.0
387 13.0 106.0
388 25.0 111.0
389 13.0 213.0
390 270.0 351.0
391 349.0 350.0
392 142.0 184.0
393 175.0 202.0
394 131.0 248.0
395 326.0 280.0
396 392.0 331.0
397 275.0 220.0
398 272.0 11.0
399 119.0 48.0
400 348.0 345.0
EOF





